c max 191  192  193  194  195  196  197  198  212  214  216  217 0
c ind 632  633  634  637  638  641  642  643  646  647  648  651  654  655  658  659  660  663  664  665  668  669  672  673  674  677  678  679  682  683  686  687  688  689  692  693  694  695  698  699  700  701  704  705  708  709  710  711  714  715  716  717  718  720  721  722  723  724 0
c This is a CNF SAT formula in the DIMACS CNF format,
c produced with the bc2cnf translator by Tommi Junttila;
c see http://users.ics.aalto.fi/tjunttil/circuits/index.html
c phi_Gamma_det <-> 1
c phi_Gamma <-> 1
c phi_T_transitions <-> 1
c phi_T_transitions_consistency <-> 1
c phi_T <-> 1
c phi_sim_leaves <-> 1
c phi_sim_transition <-> 1
c phi_sim <-> 1
c FORMULA <-> 1
c pi_0 <-> 2
c tau_0_3_approved_1 <-> 191
c tau_0_3_approved_0 <-> 192
c tau_0_2_approved_1 <-> 193
c tau_0_2_approved_0 <-> 194
c tau_0_1_approved_1 <-> 195
c tau_0_1_approved_0 <-> 196
c tau_0_0_approved_1 <-> 197
c tau_0_0_approved_0 <-> 198
c phi_T_feature_det <-> 199
c lam_0_credit_score <-> 212
c lam_0_dependents <-> 214
c lam_0_monthly_income <-> 216
c lam_0_age <-> 217
c phi_Gamma_val <-> 630
c credit_score_P68200 <-> 632
c monthly_income_P558040 <-> 633
c age_P7600 <-> 634
c credit_score_P80600 <-> 637
c monthly_income_P623614 <-> 638
c credit_score_P69500 <-> 641
c monthly_income_P635644 <-> 642
c age_P2200 <-> 643
c credit_score_P51900 <-> 646
c monthly_income_P646893 <-> 647
c age_P2000 <-> 648
c monthly_income_P714268 <-> 651
c credit_score_P77400 <-> 654
c monthly_income_P734560 <-> 655
c credit_score_P31400 <-> 658
c monthly_income_P672556 <-> 659
c age_P2100 <-> 660
c credit_score_P78200 <-> 663
c dependents_P500 <-> 664
c monthly_income_P650180 <-> 665
c credit_score_P53400 <-> 668
c monthly_income_P969902 <-> 669
c credit_score_P51300 <-> 672
c monthly_income_P608009 <-> 673
c age_P3300 <-> 674
c credit_score_P39900 <-> 677
c monthly_income_P892512 <-> 678
c age_P2400 <-> 679
c credit_score_P63100 <-> 682
c monthly_income_P869694 <-> 683
c credit_score_P84300 <-> 686
c dependents_P400 <-> 687
c monthly_income_P823619 <-> 688
c age_P5200 <-> 689
c credit_score_P40500 <-> 692
c dependents_P600 <-> 693
c monthly_income_P513424 <-> 694
c age_P5800 <-> 695
c credit_score_P62800 <-> 698
c dependents_P200 <-> 699
c monthly_income_P766245 <-> 700
c age_P4100 <-> 701
c credit_score_P76700 <-> 704
c monthly_income_P843317 <-> 705
c credit_score_P39400 <-> 708
c dependents_P0 <-> 709
c monthly_income_P835275 <-> 710
c age_P7100 <-> 711
c pi_approved_1 <-> 714
c approved_P100 <-> 714
c credit_score_P38200 <-> 715
c dependents_P300 <-> 716
c monthly_income_P895152 <-> 717
c age_P6300 <-> 718
c pi_approved_0 <-> 720
c approved_P0 <-> 720
c credit_score_P86900 <-> 721
c dependents_P100 <-> 722
c monthly_income_P475022 <-> 723
c age_P2800 <-> 724
p cnf 724 2023
1 0
2 -3 0
2 -9 0
-2 9 3 0
2 0
-3 4 0
-3 89 0
3 -89 -4 0
-4 5 0
-4 212 0
4 -212 -5 0
5 -6 0
5 -107 0
-5 107 6 0
6 -7 0
6 -139 0
-6 139 7 0
7 -8 0
7 -115 0
-7 115 8 0
8 -94 0
8 -158 0
-8 158 94 0
9 -10 0
9 -19 0
-9 19 10 0
-10 11 0
-10 102 0
10 -102 -11 0
-11 12 0
-11 212 0
11 -212 -12 0
12 -13 0
12 -77 0
-12 77 13 0
13 -14 0
13 -131 0
-13 131 14 0
14 -15 0
14 -135 0
-14 135 15 0
15 -16 0
15 -111 0
-15 111 16 0
16 -17 0
16 -147 0
-16 147 17 0
17 -18 0
17 -119 0
-17 119 18 0
18 -122 0
18 -155 0
-18 155 122 0
19 -20 0
19 -25 0
-19 25 20 0
-20 21 0
-20 126 0
20 -126 -21 0
-21 22 0
-21 212 0
21 -212 -22 0
22 -23 0
22 -143 0
-22 143 23 0
23 -24 0
23 -151 0
-23 151 24 0
24 -80 0
24 -97 0
-24 97 80 0
25 -26 0
25 -37 0
-25 37 26 0
-26 27 0
-26 102 0
26 -102 -27 0
-27 28 0
-27 214 0
27 -214 -28 0
28 -29 0
28 -107 0
-28 107 29 0
29 -30 0
29 -131 0
-29 131 30 0
30 -31 0
30 -135 0
-30 135 31 0
31 -32 0
31 -139 0
-31 139 32 0
32 -33 0
32 -115 0
-32 115 33 0
33 -34 0
33 -119 0
-33 119 34 0
34 -35 0
34 -151 0
-34 151 35 0
35 -36 0
35 -94 0
-35 94 36 0
36 -84 0
36 -97 0
-36 97 84 0
37 -38 0
37 -48 0
-37 48 38 0
-38 39 0
-38 126 0
38 -126 -39 0
-39 40 0
-39 214 0
39 -214 -40 0
40 -41 0
40 -77 0
-40 77 41 0
41 -42 0
41 -111 0
-41 111 42 0
42 -43 0
42 -143 0
-42 143 43 0
43 -44 0
43 -147 0
-43 147 44 0
44 -45 0
44 -155 0
-44 155 45 0
45 -46 0
45 -122 0
-45 122 46 0
46 -47 0
46 -159 0
-46 159 47 0
47 -81 0
47 -162 0
-47 162 81 0
48 -49 0
48 -65 0
-48 65 49 0
-49 50 0
-49 102 0
49 -102 -50 0
-50 51 0
-50 216 0
50 -216 -51 0
51 -52 0
51 -107 0
-51 107 52 0
52 -53 0
52 -131 0
-52 131 53 0
53 -54 0
53 -135 0
-53 135 54 0
54 -55 0
54 -111 0
-54 111 55 0
55 -56 0
55 -139 0
-55 139 56 0
56 -57 0
56 -143 0
-56 143 57 0
57 -58 0
57 -115 0
-57 115 58 0
58 -59 0
58 -147 0
-58 147 59 0
59 -60 0
59 -119 0
-59 119 60 0
60 -61 0
60 -151 0
-60 151 61 0
61 -62 0
61 -155 0
-61 155 62 0
62 -63 0
62 -94 0
-62 94 63 0
63 -64 0
63 -122 0
-63 122 64 0
64 -80 0
64 -159 0
-64 159 80 0
65 -66 0
65 -70 0
-65 70 66 0
-66 67 0
-66 126 0
66 -126 -67 0
-67 68 0
-67 216 0
67 -216 -68 0
68 -69 0
68 -77 0
-68 77 69 0
69 -97 0
69 -162 0
-69 162 97 0
70 -71 0
70 -87 0
-70 87 71 0
-71 72 0
-71 75 0
71 -75 -72 0
-72 73 0
-72 74 0
72 -74 -73 0
73 191 0
73 -714 0
-73 714 -191 0
74 192 0
74 -720 0
-74 720 -192 0
-75 76 0
-75 217 0
75 -217 -76 0
76 -77 0
76 -80 0
-76 80 77 0
-77 78 0
-77 632 0
77 -632 -78 0
-78 79 0
-78 699 0
78 -699 -79 0
-79 633 0
-79 634 0
79 -634 -633 0
80 -81 0
80 -84 0
-80 84 81 0
-81 82 0
-81 708 0
81 -708 -82 0
-82 83 0
-82 709 0
82 -709 -83 0
-83 710 0
-83 711 0
83 -711 -710 0
-84 85 0
-84 715 0
84 -715 -85 0
-85 86 0
-85 716 0
85 -716 -86 0
-86 717 0
-86 718 0
86 -718 -717 0
87 -88 0
87 -100 0
-87 100 88 0
-88 89 0
-88 92 0
88 -92 -89 0
-89 90 0
-89 91 0
89 -91 -90 0
90 193 0
90 -714 0
-90 714 -193 0
91 194 0
91 -720 0
-91 720 -194 0
-92 93 0
-92 217 0
92 -217 -93 0
93 -94 0
93 -97 0
-93 97 94 0
-94 95 0
-94 686 0
94 -686 -95 0
-95 96 0
-95 687 0
95 -687 -96 0
-96 688 0
-96 689 0
96 -689 -688 0
-97 98 0
-97 692 0
97 -692 -98 0
-98 99 0
-98 693 0
98 -693 -99 0
-99 694 0
-99 695 0
99 -695 -694 0
100 -101 0
100 -125 0
-100 125 101 0
-101 102 0
-101 105 0
101 -105 -102 0
-102 103 0
-102 104 0
102 -104 -103 0
103 195 0
103 -714 0
-103 714 -195 0
104 196 0
104 -720 0
-104 720 -196 0
-105 106 0
-105 217 0
105 -217 -106 0
106 -107 0
106 -110 0
-106 110 107 0
-107 108 0
-107 637 0
107 -637 -108 0
-108 109 0
-108 693 0
108 -693 -109 0
-109 638 0
-109 674 0
109 -674 -638 0
110 -111 0
110 -114 0
-110 114 111 0
-111 112 0
-111 668 0
111 -668 -112 0
-112 113 0
-112 699 0
112 -699 -113 0
-113 651 0
-113 674 0
113 -674 -651 0
114 -115 0
114 -118 0
-114 118 115 0
-115 116 0
-115 663 0
115 -663 -116 0
-116 117 0
-116 664 0
116 -664 -117 0
-117 665 0
-117 674 0
117 -674 -665 0
118 -119 0
118 -122 0
-118 122 119 0
-119 120 0
-119 672 0
119 -672 -120 0
-120 121 0
-120 687 0
120 -687 -121 0
-121 673 0
-121 674 0
121 -674 -673 0
-122 123 0
-122 698 0
122 -698 -123 0
-123 124 0
-123 699 0
123 -699 -124 0
-124 700 0
-124 701 0
124 -701 -700 0
-125 126 0
-125 129 0
125 -129 -126 0
-126 127 0
-126 128 0
126 -128 -127 0
127 197 0
127 -714 0
-127 714 -197 0
128 198 0
128 -720 0
-128 720 -198 0
-129 130 0
-129 217 0
129 -217 -130 0
130 -131 0
130 -134 0
-130 134 131 0
-131 132 0
-131 641 0
131 -641 -132 0
-132 133 0
-132 687 0
132 -687 -133 0
-133 642 0
-133 643 0
133 -643 -642 0
134 -135 0
134 -138 0
-134 138 135 0
-135 136 0
-135 646 0
135 -646 -136 0
-136 137 0
-136 687 0
136 -687 -137 0
-137 647 0
-137 648 0
137 -648 -647 0
138 -139 0
138 -142 0
-138 142 139 0
-139 140 0
-139 654 0
139 -654 -140 0
-140 141 0
-140 664 0
140 -664 -141 0
-141 655 0
-141 679 0
141 -679 -655 0
142 -143 0
142 -146 0
-142 146 143 0
-143 144 0
-143 658 0
143 -658 -144 0
-144 145 0
-144 722 0
144 -722 -145 0
-145 659 0
-145 660 0
145 -660 -659 0
146 -147 0
146 -150 0
-146 150 147 0
-147 148 0
-147 668 0
147 -668 -148 0
-148 149 0
-148 709 0
148 -709 -149 0
-149 669 0
-149 679 0
149 -679 -669 0
150 -151 0
150 -154 0
-150 154 151 0
-151 152 0
-151 677 0
151 -677 -152 0
-152 153 0
-152 693 0
152 -693 -153 0
-153 678 0
-153 679 0
153 -679 -678 0
154 -155 0
154 -158 0
-154 158 155 0
-155 156 0
-155 682 0
155 -682 -156 0
-156 157 0
-156 699 0
156 -699 -157 0
-157 683 0
-157 724 0
157 -724 -683 0
158 -159 0
158 -162 0
-158 162 159 0
-159 160 0
-159 704 0
159 -704 -160 0
-160 161 0
-160 722 0
160 -722 -161 0
-161 705 0
-161 724 0
161 -724 -705 0
-162 163 0
-162 721 0
162 -721 -163 0
-163 164 0
-163 722 0
163 -722 -164 0
-164 723 0
-164 724 0
164 -724 -723 0
165 212 0
165 -166 0
-165 166 -212 0
165 0
-166 -191 0
-166 -192 0
166 192 191 0
167 214 0
167 -168 0
-167 168 -214 0
167 0
-168 -191 0
-168 169 0
168 -169 191 0
-169 -192 0
-169 170 0
169 -170 192 0
-170 -193 0
-170 -194 0
170 194 193 0
171 -168 0
171 216 0
-171 -216 168 0
171 0
172 212 0
172 -173 0
-172 173 -212 0
172 0
-173 174 0
-173 177 0
173 -177 -174 0
174 -175 0
174 -176 0
-174 176 175 0
-175 -194 0
-175 193 0
175 -193 194 0
-176 -193 0
-176 194 0
176 -194 193 0
-177 178 0
-177 181 0
177 -181 -178 0
178 -179 0
178 -180 0
-178 180 179 0
-179 -196 0
-179 195 0
179 -195 196 0
-180 -195 0
-180 196 0
180 -196 195 0
181 -182 0
181 -183 0
-181 183 182 0
-182 -198 0
-182 197 0
182 -197 198 0
-183 -197 0
-183 198 0
183 -198 197 0
184 214 0
184 -177 0
-184 177 -214 0
184 0
185 216 0
185 -177 0
-185 177 -216 0
185 0
186 217 0
186 -187 0
-186 187 -217 0
186 0
-187 173 0
-187 188 0
187 -188 -173 0
188 -189 0
188 -190 0
-188 190 189 0
-189 -192 0
-189 191 0
189 -191 192 0
-190 -191 0
-190 192 0
190 -192 191 0
199 -200 0
199 -203 0
-199 203 200 0
199 0
-200 -214 0
-200 201 0
200 -201 214 0
-201 -216 0
-201 202 0
201 -202 216 0
-202 -217 0
-202 212 0
202 -212 217 0
203 -204 0
203 -207 0
-203 207 204 0
-204 -212 0
-204 205 0
204 -205 212 0
-205 -216 0
-205 206 0
205 -206 216 0
-206 -217 0
-206 214 0
206 -214 217 0
207 -208 0
207 -211 0
-207 211 208 0
-208 -212 0
-208 209 0
208 -209 212 0
-209 -214 0
-209 210 0
209 -210 214 0
-210 -217 0
-210 216 0
210 -216 217 0
-211 -212 0
-211 213 0
211 -213 212 0
-213 -214 0
-213 215 0
213 -215 214 0
-215 -216 0
-215 217 0
215 -217 216 0
218 720 0
218 714 0
-218 -714 -720 0
218 0
219 637 0
219 632 0
-219 -632 -637 0
219 0
220 641 0
220 -221 0
-220 221 -641 0
220 0
-221 -637 0
-221 -632 0
221 632 637 0
222 646 0
222 -223 0
-222 223 -646 0
222 0
-223 -632 0
-223 224 0
223 -224 632 0
-224 -637 0
-224 -641 0
224 641 637 0
225 654 0
225 -226 0
-225 226 -654 0
225 0
-226 -632 0
-226 227 0
226 -227 632 0
-227 -637 0
-227 228 0
227 -228 637 0
-228 -641 0
-228 -646 0
228 646 641 0
229 658 0
229 -230 0
-229 230 -658 0
229 0
-230 -632 0
-230 231 0
230 -231 632 0
-231 -637 0
-231 232 0
231 -232 637 0
-232 -641 0
-232 233 0
232 -233 641 0
-233 -646 0
-233 -654 0
233 654 646 0
234 663 0
234 -235 0
-234 235 -663 0
234 0
-235 -632 0
-235 236 0
235 -236 632 0
-236 -637 0
-236 237 0
236 -237 637 0
-237 -641 0
-237 238 0
237 -238 641 0
-238 -646 0
-238 239 0
238 -239 646 0
-239 -654 0
-239 -658 0
239 658 654 0
240 668 0
240 -241 0
-240 241 -668 0
240 0
-241 -632 0
-241 242 0
241 -242 632 0
-242 -637 0
-242 243 0
242 -243 637 0
-243 -641 0
-243 244 0
243 -244 641 0
-244 -646 0
-244 245 0
244 -245 646 0
-245 -654 0
-245 246 0
245 -246 654 0
-246 -658 0
-246 -663 0
246 663 658 0
247 672 0
247 -248 0
-247 248 -672 0
247 0
-248 -632 0
-248 249 0
248 -249 632 0
-249 -637 0
-249 250 0
249 -250 637 0
-250 -641 0
-250 251 0
250 -251 641 0
-251 -646 0
-251 252 0
251 -252 646 0
-252 -654 0
-252 253 0
252 -253 654 0
-253 -658 0
-253 254 0
253 -254 658 0
-254 -663 0
-254 -668 0
254 668 663 0
255 677 0
255 -256 0
-255 256 -677 0
255 0
-256 -632 0
-256 257 0
256 -257 632 0
-257 -637 0
-257 258 0
257 -258 637 0
-258 -641 0
-258 259 0
258 -259 641 0
-259 -646 0
-259 260 0
259 -260 646 0
-260 -654 0
-260 261 0
260 -261 654 0
-261 -658 0
-261 262 0
261 -262 658 0
-262 -663 0
-262 263 0
262 -263 663 0
-263 -668 0
-263 -672 0
263 672 668 0
264 682 0
264 -265 0
-264 265 -682 0
264 0
-265 -632 0
-265 266 0
265 -266 632 0
-266 -637 0
-266 267 0
266 -267 637 0
-267 -641 0
-267 268 0
267 -268 641 0
-268 -646 0
-268 269 0
268 -269 646 0
-269 -654 0
-269 270 0
269 -270 654 0
-270 -658 0
-270 271 0
270 -271 658 0
-271 -663 0
-271 272 0
271 -272 663 0
-272 -668 0
-272 273 0
272 -273 668 0
-273 -672 0
-273 -677 0
273 677 672 0
274 686 0
274 -275 0
-274 275 -686 0
274 0
-275 -632 0
-275 276 0
275 -276 632 0
-276 -637 0
-276 277 0
276 -277 637 0
-277 -641 0
-277 278 0
277 -278 641 0
-278 -646 0
-278 279 0
278 -279 646 0
-279 -654 0
-279 280 0
279 -280 654 0
-280 -658 0
-280 281 0
280 -281 658 0
-281 -663 0
-281 282 0
281 -282 663 0
-282 -668 0
-282 283 0
282 -283 668 0
-283 -672 0
-283 284 0
283 -284 672 0
-284 -677 0
-284 -682 0
284 682 677 0
285 692 0
285 -286 0
-285 286 -692 0
285 0
-286 -632 0
-286 287 0
286 -287 632 0
-287 -637 0
-287 288 0
287 -288 637 0
-288 -641 0
-288 289 0
288 -289 641 0
-289 -646 0
-289 290 0
289 -290 646 0
-290 -654 0
-290 291 0
290 -291 654 0
-291 -658 0
-291 292 0
291 -292 658 0
-292 -663 0
-292 293 0
292 -293 663 0
-293 -668 0
-293 294 0
293 -294 668 0
-294 -672 0
-294 295 0
294 -295 672 0
-295 -677 0
-295 296 0
295 -296 677 0
-296 -682 0
-296 -686 0
296 686 682 0
297 698 0
297 -298 0
-297 298 -698 0
297 0
-298 -632 0
-298 299 0
298 -299 632 0
-299 -637 0
-299 300 0
299 -300 637 0
-300 -641 0
-300 301 0
300 -301 641 0
-301 -646 0
-301 302 0
301 -302 646 0
-302 -654 0
-302 303 0
302 -303 654 0
-303 -658 0
-303 304 0
303 -304 658 0
-304 -663 0
-304 305 0
304 -305 663 0
-305 -668 0
-305 306 0
305 -306 668 0
-306 -672 0
-306 307 0
306 -307 672 0
-307 -677 0
-307 308 0
307 -308 677 0
-308 -682 0
-308 309 0
308 -309 682 0
-309 -686 0
-309 -692 0
309 692 686 0
310 704 0
310 -311 0
-310 311 -704 0
310 0
-311 -632 0
-311 312 0
311 -312 632 0
-312 -637 0
-312 313 0
312 -313 637 0
-313 -641 0
-313 314 0
313 -314 641 0
-314 -646 0
-314 315 0
314 -315 646 0
-315 -654 0
-315 316 0
315 -316 654 0
-316 -658 0
-316 317 0
316 -317 658 0
-317 -663 0
-317 318 0
317 -318 663 0
-318 -668 0
-318 319 0
318 -319 668 0
-319 -672 0
-319 320 0
319 -320 672 0
-320 -677 0
-320 321 0
320 -321 677 0
-321 -682 0
-321 322 0
321 -322 682 0
-322 -686 0
-322 323 0
322 -323 686 0
-323 -692 0
-323 -698 0
323 698 692 0
324 708 0
324 -325 0
-324 325 -708 0
324 0
-325 -632 0
-325 326 0
325 -326 632 0
-326 -637 0
-326 327 0
326 -327 637 0
-327 -641 0
-327 328 0
327 -328 641 0
-328 -646 0
-328 329 0
328 -329 646 0
-329 -654 0
-329 330 0
329 -330 654 0
-330 -658 0
-330 331 0
330 -331 658 0
-331 -663 0
-331 332 0
331 -332 663 0
-332 -668 0
-332 333 0
332 -333 668 0
-333 -672 0
-333 334 0
333 -334 672 0
-334 -677 0
-334 335 0
334 -335 677 0
-335 -682 0
-335 336 0
335 -336 682 0
-336 -686 0
-336 337 0
336 -337 686 0
-337 -692 0
-337 338 0
337 -338 692 0
-338 -698 0
-338 -704 0
338 704 698 0
339 715 0
339 -340 0
-339 340 -715 0
339 0
-340 -632 0
-340 341 0
340 -341 632 0
-341 -637 0
-341 342 0
341 -342 637 0
-342 -641 0
-342 343 0
342 -343 641 0
-343 -646 0
-343 344 0
343 -344 646 0
-344 -654 0
-344 345 0
344 -345 654 0
-345 -658 0
-345 346 0
345 -346 658 0
-346 -663 0
-346 347 0
346 -347 663 0
-347 -668 0
-347 348 0
347 -348 668 0
-348 -672 0
-348 349 0
348 -349 672 0
-349 -677 0
-349 350 0
349 -350 677 0
-350 -682 0
-350 351 0
350 -351 682 0
-351 -686 0
-351 352 0
351 -352 686 0
-352 -692 0
-352 353 0
352 -353 692 0
-353 -698 0
-353 354 0
353 -354 698 0
-354 -704 0
-354 -708 0
354 708 704 0
355 721 0
355 -356 0
-355 356 -721 0
355 0
-356 -632 0
-356 357 0
356 -357 632 0
-357 -637 0
-357 358 0
357 -358 637 0
-358 -641 0
-358 359 0
358 -359 641 0
-359 -646 0
-359 360 0
359 -360 646 0
-360 -654 0
-360 361 0
360 -361 654 0
-361 -658 0
-361 362 0
361 -362 658 0
-362 -663 0
-362 363 0
362 -363 663 0
-363 -668 0
-363 364 0
363 -364 668 0
-364 -672 0
-364 365 0
364 -365 672 0
-365 -677 0
-365 366 0
365 -366 677 0
-366 -682 0
-366 367 0
366 -367 682 0
-367 -686 0
-367 368 0
367 -368 686 0
-368 -692 0
-368 369 0
368 -369 692 0
-369 -698 0
-369 370 0
369 -370 698 0
-370 -704 0
-370 371 0
370 -371 704 0
-371 -708 0
-371 -715 0
371 715 708 0
372 687 0
372 664 0
-372 -664 -687 0
372 0
373 693 0
373 -374 0
-373 374 -693 0
373 0
-374 -687 0
-374 -664 0
374 664 687 0
375 699 0
375 -376 0
-375 376 -699 0
375 0
-376 -664 0
-376 377 0
376 -377 664 0
-377 -687 0
-377 -693 0
377 693 687 0
378 709 0
378 -379 0
-378 379 -709 0
378 0
-379 -664 0
-379 380 0
379 -380 664 0
-380 -687 0
-380 381 0
380 -381 687 0
-381 -693 0
-381 -699 0
381 699 693 0
382 716 0
382 -383 0
-382 383 -716 0
382 0
-383 -664 0
-383 384 0
383 -384 664 0
-384 -687 0
-384 385 0
384 -385 687 0
-385 -693 0
-385 386 0
385 -386 693 0
-386 -699 0
-386 -709 0
386 709 699 0
387 722 0
387 -388 0
-387 388 -722 0
387 0
-388 -664 0
-388 389 0
388 -389 664 0
-389 -687 0
-389 390 0
389 -390 687 0
-390 -693 0
-390 391 0
390 -391 693 0
-391 -699 0
-391 392 0
391 -392 699 0
-392 -709 0
-392 -716 0
392 716 709 0
393 638 0
393 633 0
-393 -633 -638 0
393 0
394 642 0
394 -395 0
-394 395 -642 0
394 0
-395 -638 0
-395 -633 0
395 633 638 0
396 647 0
396 -397 0
-396 397 -647 0
396 0
-397 -633 0
-397 398 0
397 -398 633 0
-398 -638 0
-398 -642 0
398 642 638 0
399 651 0
399 -400 0
-399 400 -651 0
399 0
-400 -633 0
-400 401 0
400 -401 633 0
-401 -638 0
-401 402 0
401 -402 638 0
-402 -642 0
-402 -647 0
402 647 642 0
403 655 0
403 -404 0
-403 404 -655 0
403 0
-404 -633 0
-404 405 0
404 -405 633 0
-405 -638 0
-405 406 0
405 -406 638 0
-406 -642 0
-406 407 0
406 -407 642 0
-407 -647 0
-407 -651 0
407 651 647 0
408 659 0
408 -409 0
-408 409 -659 0
408 0
-409 -633 0
-409 410 0
409 -410 633 0
-410 -638 0
-410 411 0
410 -411 638 0
-411 -642 0
-411 412 0
411 -412 642 0
-412 -647 0
-412 413 0
412 -413 647 0
-413 -651 0
-413 -655 0
413 655 651 0
414 665 0
414 -415 0
-414 415 -665 0
414 0
-415 -633 0
-415 416 0
415 -416 633 0
-416 -638 0
-416 417 0
416 -417 638 0
-417 -642 0
-417 418 0
417 -418 642 0
-418 -647 0
-418 419 0
418 -419 647 0
-419 -651 0
-419 420 0
419 -420 651 0
-420 -655 0
-420 -659 0
420 659 655 0
421 669 0
421 -422 0
-421 422 -669 0
421 0
-422 -633 0
-422 423 0
422 -423 633 0
-423 -638 0
-423 424 0
423 -424 638 0
-424 -642 0
-424 425 0
424 -425 642 0
-425 -647 0
-425 426 0
425 -426 647 0
-426 -651 0
-426 427 0
426 -427 651 0
-427 -655 0
-427 428 0
427 -428 655 0
-428 -659 0
-428 -665 0
428 665 659 0
429 673 0
429 -430 0
-429 430 -673 0
429 0
-430 -633 0
-430 431 0
430 -431 633 0
-431 -638 0
-431 432 0
431 -432 638 0
-432 -642 0
-432 433 0
432 -433 642 0
-433 -647 0
-433 434 0
433 -434 647 0
-434 -651 0
-434 435 0
434 -435 651 0
-435 -655 0
-435 436 0
435 -436 655 0
-436 -659 0
-436 437 0
436 -437 659 0
-437 -665 0
-437 -669 0
437 669 665 0
438 678 0
438 -439 0
-438 439 -678 0
438 0
-439 -633 0
-439 440 0
439 -440 633 0
-440 -638 0
-440 441 0
440 -441 638 0
-441 -642 0
-441 442 0
441 -442 642 0
-442 -647 0
-442 443 0
442 -443 647 0
-443 -651 0
-443 444 0
443 -444 651 0
-444 -655 0
-444 445 0
444 -445 655 0
-445 -659 0
-445 446 0
445 -446 659 0
-446 -665 0
-446 447 0
446 -447 665 0
-447 -669 0
-447 -673 0
447 673 669 0
448 683 0
448 -449 0
-448 449 -683 0
448 0
-449 -633 0
-449 450 0
449 -450 633 0
-450 -638 0
-450 451 0
450 -451 638 0
-451 -642 0
-451 452 0
451 -452 642 0
-452 -647 0
-452 453 0
452 -453 647 0
-453 -651 0
-453 454 0
453 -454 651 0
-454 -655 0
-454 455 0
454 -455 655 0
-455 -659 0
-455 456 0
455 -456 659 0
-456 -665 0
-456 457 0
456 -457 665 0
-457 -669 0
-457 458 0
457 -458 669 0
-458 -673 0
-458 -678 0
458 678 673 0
459 688 0
459 -460 0
-459 460 -688 0
459 0
-460 -633 0
-460 461 0
460 -461 633 0
-461 -638 0
-461 462 0
461 -462 638 0
-462 -642 0
-462 463 0
462 -463 642 0
-463 -647 0
-463 464 0
463 -464 647 0
-464 -651 0
-464 465 0
464 -465 651 0
-465 -655 0
-465 466 0
465 -466 655 0
-466 -659 0
-466 467 0
466 -467 659 0
-467 -665 0
-467 468 0
467 -468 665 0
-468 -669 0
-468 469 0
468 -469 669 0
-469 -673 0
-469 470 0
469 -470 673 0
-470 -678 0
-470 -683 0
470 683 678 0
471 694 0
471 -472 0
-471 472 -694 0
471 0
-472 -633 0
-472 473 0
472 -473 633 0
-473 -638 0
-473 474 0
473 -474 638 0
-474 -642 0
-474 475 0
474 -475 642 0
-475 -647 0
-475 476 0
475 -476 647 0
-476 -651 0
-476 477 0
476 -477 651 0
-477 -655 0
-477 478 0
477 -478 655 0
-478 -659 0
-478 479 0
478 -479 659 0
-479 -665 0
-479 480 0
479 -480 665 0
-480 -669 0
-480 481 0
480 -481 669 0
-481 -673 0
-481 482 0
481 -482 673 0
-482 -678 0
-482 483 0
482 -483 678 0
-483 -683 0
-483 -688 0
483 688 683 0
484 700 0
484 -485 0
-484 485 -700 0
484 0
-485 -633 0
-485 486 0
485 -486 633 0
-486 -638 0
-486 487 0
486 -487 638 0
-487 -642 0
-487 488 0
487 -488 642 0
-488 -647 0
-488 489 0
488 -489 647 0
-489 -651 0
-489 490 0
489 -490 651 0
-490 -655 0
-490 491 0
490 -491 655 0
-491 -659 0
-491 492 0
491 -492 659 0
-492 -665 0
-492 493 0
492 -493 665 0
-493 -669 0
-493 494 0
493 -494 669 0
-494 -673 0
-494 495 0
494 -495 673 0
-495 -678 0
-495 496 0
495 -496 678 0
-496 -683 0
-496 497 0
496 -497 683 0
-497 -688 0
-497 -694 0
497 694 688 0
498 705 0
498 -499 0
-498 499 -705 0
498 0
-499 -633 0
-499 500 0
499 -500 633 0
-500 -638 0
-500 501 0
500 -501 638 0
-501 -642 0
-501 502 0
501 -502 642 0
-502 -647 0
-502 503 0
502 -503 647 0
-503 -651 0
-503 504 0
503 -504 651 0
-504 -655 0
-504 505 0
504 -505 655 0
-505 -659 0
-505 506 0
505 -506 659 0
-506 -665 0
-506 507 0
506 -507 665 0
-507 -669 0
-507 508 0
507 -508 669 0
-508 -673 0
-508 509 0
508 -509 673 0
-509 -678 0
-509 510 0
509 -510 678 0
-510 -683 0
-510 511 0
510 -511 683 0
-511 -688 0
-511 512 0
511 -512 688 0
-512 -694 0
-512 -700 0
512 700 694 0
513 710 0
513 -514 0
-513 514 -710 0
513 0
-514 -633 0
-514 515 0
514 -515 633 0
-515 -638 0
-515 516 0
515 -516 638 0
-516 -642 0
-516 517 0
516 -517 642 0
-517 -647 0
-517 518 0
517 -518 647 0
-518 -651 0
-518 519 0
518 -519 651 0
-519 -655 0
-519 520 0
519 -520 655 0
-520 -659 0
-520 521 0
520 -521 659 0
-521 -665 0
-521 522 0
521 -522 665 0
-522 -669 0
-522 523 0
522 -523 669 0
-523 -673 0
-523 524 0
523 -524 673 0
-524 -678 0
-524 525 0
524 -525 678 0
-525 -683 0
-525 526 0
525 -526 683 0
-526 -688 0
-526 527 0
526 -527 688 0
-527 -694 0
-527 528 0
527 -528 694 0
-528 -700 0
-528 -705 0
528 705 700 0
529 717 0
529 -530 0
-529 530 -717 0
529 0
-530 -633 0
-530 531 0
530 -531 633 0
-531 -638 0
-531 532 0
531 -532 638 0
-532 -642 0
-532 533 0
532 -533 642 0
-533 -647 0
-533 534 0
533 -534 647 0
-534 -651 0
-534 535 0
534 -535 651 0
-535 -655 0
-535 536 0
535 -536 655 0
-536 -659 0
-536 537 0
536 -537 659 0
-537 -665 0
-537 538 0
537 -538 665 0
-538 -669 0
-538 539 0
538 -539 669 0
-539 -673 0
-539 540 0
539 -540 673 0
-540 -678 0
-540 541 0
540 -541 678 0
-541 -683 0
-541 542 0
541 -542 683 0
-542 -688 0
-542 543 0
542 -543 688 0
-543 -694 0
-543 544 0
543 -544 694 0
-544 -700 0
-544 545 0
544 -545 700 0
-545 -705 0
-545 -710 0
545 710 705 0
546 723 0
546 -547 0
-546 547 -723 0
546 0
-547 -633 0
-547 548 0
547 -548 633 0
-548 -638 0
-548 549 0
548 -549 638 0
-549 -642 0
-549 550 0
549 -550 642 0
-550 -647 0
-550 551 0
550 -551 647 0
-551 -651 0
-551 552 0
551 -552 651 0
-552 -655 0
-552 553 0
552 -553 655 0
-553 -659 0
-553 554 0
553 -554 659 0
-554 -665 0
-554 555 0
554 -555 665 0
-555 -669 0
-555 556 0
555 -556 669 0
-556 -673 0
-556 557 0
556 -557 673 0
-557 -678 0
-557 558 0
557 -558 678 0
-558 -683 0
-558 559 0
558 -559 683 0
-559 -688 0
-559 560 0
559 -560 688 0
-560 -694 0
-560 561 0
560 -561 694 0
-561 -700 0
-561 562 0
561 -562 700 0
-562 -705 0
-562 563 0
562 -563 705 0
-563 -710 0
-563 -717 0
563 717 710 0
564 643 0
564 634 0
-564 -634 -643 0
564 0
565 648 0
565 -566 0
-565 566 -648 0
565 0
-566 -643 0
-566 -634 0
566 634 643 0
567 660 0
567 -568 0
-567 568 -660 0
567 0
-568 -634 0
-568 569 0
568 -569 634 0
-569 -643 0
-569 -648 0
569 648 643 0
570 674 0
570 -571 0
-570 571 -674 0
570 0
-571 -634 0
-571 572 0
571 -572 634 0
-572 -643 0
-572 573 0
572 -573 643 0
-573 -648 0
-573 -660 0
573 660 648 0
574 679 0
574 -575 0
-574 575 -679 0
574 0
-575 -634 0
-575 576 0
575 -576 634 0
-576 -643 0
-576 577 0
576 -577 643 0
-577 -648 0
-577 578 0
577 -578 648 0
-578 -660 0
-578 -674 0
578 674 660 0
579 689 0
579 -580 0
-579 580 -689 0
579 0
-580 -634 0
-580 581 0
580 -581 634 0
-581 -643 0
-581 582 0
581 -582 643 0
-582 -648 0
-582 583 0
582 -583 648 0
-583 -660 0
-583 584 0
583 -584 660 0
-584 -674 0
-584 -679 0
584 679 674 0
585 695 0
585 -586 0
-585 586 -695 0
585 0
-586 -634 0
-586 587 0
586 -587 634 0
-587 -643 0
-587 588 0
587 -588 643 0
-588 -648 0
-588 589 0
588 -589 648 0
-589 -660 0
-589 590 0
589 -590 660 0
-590 -674 0
-590 591 0
590 -591 674 0
-591 -679 0
-591 -689 0
591 689 679 0
592 701 0
592 -593 0
-592 593 -701 0
592 0
-593 -634 0
-593 594 0
593 -594 634 0
-594 -643 0
-594 595 0
594 -595 643 0
-595 -648 0
-595 596 0
595 -596 648 0
-596 -660 0
-596 597 0
596 -597 660 0
-597 -674 0
-597 598 0
597 -598 674 0
-598 -679 0
-598 599 0
598 -599 679 0
-599 -689 0
-599 -695 0
599 695 689 0
600 711 0
600 -601 0
-600 601 -711 0
600 0
-601 -634 0
-601 602 0
601 -602 634 0
-602 -643 0
-602 603 0
602 -603 643 0
-603 -648 0
-603 604 0
603 -604 648 0
-604 -660 0
-604 605 0
604 -605 660 0
-605 -674 0
-605 606 0
605 -606 674 0
-606 -679 0
-606 607 0
606 -607 679 0
-607 -689 0
-607 608 0
607 -608 689 0
-608 -695 0
-608 -701 0
608 701 695 0
609 718 0
609 -610 0
-609 610 -718 0
609 0
-610 -634 0
-610 611 0
610 -611 634 0
-611 -643 0
-611 612 0
611 -612 643 0
-612 -648 0
-612 613 0
612 -613 648 0
-613 -660 0
-613 614 0
613 -614 660 0
-614 -674 0
-614 615 0
614 -615 674 0
-615 -679 0
-615 616 0
615 -616 679 0
-616 -689 0
-616 617 0
616 -617 689 0
-617 -695 0
-617 618 0
617 -618 695 0
-618 -701 0
-618 -711 0
618 711 701 0
619 724 0
619 -620 0
-619 620 -724 0
619 0
-620 -634 0
-620 621 0
620 -621 634 0
-621 -643 0
-621 622 0
621 -622 643 0
-622 -648 0
-622 623 0
622 -623 648 0
-623 -660 0
-623 624 0
623 -624 660 0
-624 -674 0
-624 625 0
624 -625 674 0
-625 -679 0
-625 626 0
625 -626 679 0
-626 -689 0
-626 627 0
626 -627 689 0
-627 -695 0
-627 628 0
627 -628 695 0
-628 -701 0
-628 629 0
628 -629 701 0
-629 -711 0
-629 -718 0
629 718 711 0
630 -631 0
630 -635 0
-630 635 631 0
630 0
-631 77 0
-631 714 0
631 -714 -77 0
635 -636 0
635 -639 0
-635 639 636 0
-636 107 0
-636 720 0
636 -720 -107 0
639 -640 0
639 -644 0
-639 644 640 0
-640 131 0
-640 720 0
640 -720 -131 0
644 -645 0
644 -649 0
-644 649 645 0
-645 135 0
-645 720 0
645 -720 -135 0
649 -650 0
649 -652 0
-649 652 650 0
-650 111 0
-650 720 0
650 -720 -111 0
652 -653 0
652 -656 0
-652 656 653 0
-653 139 0
-653 720 0
653 -720 -139 0
656 -657 0
656 -661 0
-656 661 657 0
-657 143 0
-657 720 0
657 -720 -143 0
661 -662 0
661 -666 0
-661 666 662 0
-662 115 0
-662 720 0
662 -720 -115 0
666 -667 0
666 -670 0
-666 670 667 0
-667 147 0
-667 720 0
667 -720 -147 0
670 -671 0
670 -675 0
-670 675 671 0
-671 119 0
-671 720 0
671 -720 -119 0
675 -676 0
675 -680 0
-675 680 676 0
-676 151 0
-676 720 0
676 -720 -151 0
680 -681 0
680 -684 0
-680 684 681 0
-681 155 0
-681 720 0
681 -720 -155 0
684 -685 0
684 -690 0
-684 690 685 0
-685 94 0
-685 714 0
685 -714 -94 0
690 -691 0
690 -696 0
-690 696 691 0
-691 97 0
-691 720 0
691 -720 -97 0
696 -697 0
696 -702 0
-696 702 697 0
-697 122 0
-697 714 0
697 -714 -122 0
702 -703 0
702 -706 0
-702 706 703 0
-703 159 0
-703 720 0
703 -720 -159 0
706 -707 0
706 -712 0
-706 712 707 0
-707 81 0
-707 714 0
707 -714 -81 0
712 -713 0
712 -719 0
-712 719 713 0
-713 84 0
-713 714 0
713 -714 -84 0
-719 162 0
-719 720 0
719 -720 -162 0
